BAYES
324
2 2 2 2 2 2 2 2 2 2 2 2 2 2 2 2 2 2 2 2 2 2 2 2 2 2 2 2 2 2 2 2 2 2 2 2 2 2 2 2 2 2 2 2 2 2 2 2 2 2 2 2 2 2 2 2 2 2 2 2 2 2 2 2 2 2 2 2 2 2 2 2 2 2 2 2 2 2 2 2 2 2 2 2 2 2 2 2 2 2 2 2 2 2 2 2 2 2 2 2 2 2 2 2 2 2 2 2 2 2 2 2 2 2 2 2 2 2 2 2 2 2 2 2 2 2 2 2 2 2 2 2 2 2 2 2 2 2 2 2 2 2 2 2 2 2 2 2 2 2 2 2 2 2 2 2 2 2 2 2 2 2 2 2 2 2 2 2 2 2 2 2 2 2 2 2 2 2 2 2 2 2 2 2 2 2 2 2 2 2 2 2 2 2 2 2 2 2 2 2 2 2 2 2 2 2 2 2 2 2 2 2 2 2 2 2 2 2 2 2 2 2 2 2 2 2 2 2 2 2 2 2 2 2 2 2 2 2 2 2 2 2 2 2 2 2 2 2 2 2 2 2 2 2 2 2 2 2 2 2 2 2 2 2 2 2 2 2 2 2 2 2 2 2 2 2 2 2 2 2 2 2 2 2 2 2 2 2 2 2 2 2 2 2 2 2 2 2 2 2 2 2 2 2 2 2 2 2 2 2 2 2 2 2 2 2 2 2 2 2 2 2 2 2
324
3 1 18 0
3 2 19 1
3 3 20 2
3 4 21 3
3 5 22 4
3 6 23 5
3 7 24 6
3 8 25 7
3 9 26 8
3 10 27 9
3 11 28 10
3 12 29 11
3 13 30 12
3 14 31 13
3 15 32 14
3 16 33 15
3 17 34 16
2 18 17
3 19 36 18
3 20 37 19
3 21 38 20
3 22 39 21
3 23 40 22
3 24 41 23
3 25 42 24
3 26 43 25
3 27 44 26
3 28 45 27
3 29 46 28
3 30 47 29
3 31 48 30
3 32 49 31
3 33 50 32
3 34 51 33
3 35 52 34
2 36 35
3 37 54 36
3 38 55 37
3 39 56 38
3 40 57 39
3 41 58 40
3 42 59 41
3 43 60 42
3 44 61 43
3 45 62 44
3 46 63 45
3 47 64 46
3 48 65 47
3 49 66 48
3 50 67 49
3 51 68 50
3 52 69 51
3 53 70 52
2 54 53
3 55 72 54
3 56 73 55
3 57 74 56
3 58 75 57
3 59 76 58
3 60 77 59
3 61 78 60
3 62 79 61
3 63 80 62
3 64 81 63
3 65 82 64
3 66 83 65
3 67 84 66
3 68 85 67
3 69 86 68
3 70 87 69
3 71 88 70
2 72 71
3 73 90 72
3 74 91 73
3 75 92 74
3 76 93 75
3 77 94 76
3 78 95 77
3 79 96 78
3 80 97 79
3 81 98 80
3 82 99 81
3 83 100 82
3 84 101 83
3 85 102 84
3 86 103 85
3 87 104 86
3 88 105 87
3 89 106 88
2 90 89
3 91 108 90
3 92 109 91
3 93 110 92
3 94 111 93
3 95 112 94
3 96 113 95
3 97 114 96
3 98 115 97
3 99 116 98
3 100 117 99
3 101 118 100
3 102 119 101
3 103 120 102
3 104 121 103
3 105 122 104
3 106 123 105
3 107 124 106
2 108 107
3 109 126 108
3 110 127 109
3 111 128 110
3 112 129 111
3 113 130 112
3 114 131 113
3 115 132 114
3 116 133 115
3 117 134 116
3 118 135 117
3 119 136 118
3 120 137 119
3 121 138 120
3 122 139 121
3 123 140 122
3 124 141 123
3 125 142 124
2 126 125
3 127 144 126
3 128 145 127
3 129 146 128
3 130 147 129
3 131 148 130
3 132 149 131
3 133 150 132
3 134 151 133
3 135 152 134
3 136 153 135
3 137 154 136
3 138 155 137
3 139 156 138
3 140 157 139
3 141 158 140
3 142 159 141
3 143 160 142
2 144 143
3 145 162 144
3 146 163 145
3 147 164 146
3 148 165 147
3 149 166 148
3 150 167 149
3 151 168 150
3 152 169 151
3 153 170 152
3 154 171 153
3 155 172 154
3 156 173 155
3 157 174 156
3 158 175 157
3 159 176 158
3 160 177 159
3 161 178 160
2 162 161
3 163 180 162
3 164 181 163
3 165 182 164
3 166 183 165
3 167 184 166
3 168 185 167
3 169 186 168
3 170 187 169
3 171 188 170
3 172 189 171
3 173 190 172
3 174 191 173
3 175 192 174
3 176 193 175
3 177 194 176
3 178 195 177
3 179 196 178
2 180 179
3 181 198 180
3 182 199 181
3 183 200 182
3 184 201 183
3 185 202 184
3 186 203 185
3 187 204 186
3 188 205 187
3 189 206 188
3 190 207 189
3 191 208 190
3 192 209 191
3 193 210 192
3 194 211 193
3 195 212 194
3 196 213 195
3 197 214 196
2 198 197
3 199 216 198
3 200 217 199
3 201 218 200
3 202 219 201
3 203 220 202
3 204 221 203
3 205 222 204
3 206 223 205
3 207 224 206
3 208 225 207
3 209 226 208
3 210 227 209
3 211 228 210
3 212 229 211
3 213 230 212
3 214 231 213
3 215 232 214
2 216 215
3 217 234 216
3 218 235 217
3 219 236 218
3 220 237 219
3 221 238 220
3 222 239 221
3 223 240 222
3 224 241 223
3 225 242 224
3 226 243 225
3 227 244 226
3 228 245 227
3 229 246 228
3 230 247 229
3 231 248 230
3 232 249 231
3 233 250 232
2 234 233
3 235 252 234
3 236 253 235
3 237 254 236
3 238 255 237
3 239 256 238
3 240 257 239
3 241 258 240
3 242 259 241
3 243 260 242
3 244 261 243
3 245 262 244
3 246 263 245
3 247 264 246
3 248 265 247
3 249 266 248
3 250 267 249
3 251 268 250
2 252 251
3 253 270 252
3 254 271 253
3 255 272 254
3 256 273 255
3 257 274 256
3 258 275 257
3 259 276 258
3 260 277 259
3 261 278 260
3 262 279 261
3 263 280 262
3 264 281 263
3 265 282 264
3 266 283 265
3 267 284 266
3 268 285 267
3 269 286 268
2 270 269
3 271 288 270
3 272 289 271
3 273 290 272
3 274 291 273
3 275 292 274
3 276 293 275
3 277 294 276
3 278 295 277
3 279 296 278
3 280 297 279
3 281 298 280
3 282 299 281
3 283 300 282
3 284 301 283
3 285 302 284
3 286 303 285
3 287 304 286
2 288 287
3 289 306 288
3 290 307 289
3 291 308 290
3 292 309 291
3 293 310 292
3 294 311 293
3 295 312 294
3 296 313 295
3 297 314 296
3 298 315 297
3 299 316 298
3 300 317 299
3 301 318 300
3 302 319 301
3 303 320 302
3 304 321 303
3 305 322 304
2 306 305
2 324 306
2 325 307
2 326 308
2 327 309
2 328 310
2 329 311
2 330 312
2 331 313
2 332 314
2 333 315
2 334 316
2 335 317
2 336 318
2 337 319
2 338 320
2 339 321
2 340 322
1  323
8
1 0 0 1 0 1 0 1
8
1 0 1 0 0 1 1 0
8
1 0 0 1 0 1 0 1
8
1 0 1 0 1 0 1 0
8
1 0 1 0 0 1 0 1
8
0 1 1 0 0 1 1 0
8
1 0 1 0 0 1 1 0
8
0 1 1 0 0 1 1 0
8
1 0 0 1 0 1 1 0
8
0 1 0 1 1 0 0 1
8
0 1 0 1 1 0 1 0
8
1 0 1 0 0 1 1 0
8
1 0 1 0 0 1 0 1
8
0 1 1 0 1 0 1 0
8
0.5581693031496092 0.4418306968503907 0.47593729749649893 0.5240627025035011 0.21776090280316504 0.7822390971968349 0.027758967233638646 0.9722410327663613
8
0 1 0 1 1 0 1 0
8
0 1 0 1 1 0 0 1
4
1 0 1 0
8
1 0 1 0 1 0 1 0
8
0 1 0 1 0 1 1 0
8
0 1 0 1 1 0 0 1
8
0 1 0 1 1 0 0 1
8
0 1 0 1 1 0 0 1
8
0 1 0 1 1 0 1 0
8
1 0 0 1 1 0 1 0
8
1 0 0 1 0 1 1 0
8
0 1 1 0 0 1 1 0
8
0 1 1 0 1 0 1 0
8
1 0 1 0 1 0 1 0
8
0.7163651846551149 0.28363481534488516 0.6076950760293005 0.39230492397069955 0.5105913256909543 0.48940867430904567 0.6310888577372331 0.36891114226276694
8
0 1 0 1 0 1 0 1
8
1 0 0 1 0 1 0 1
8
1 0 1 0 1 0 1 0
8
0 1 1 0 1 0 0 1
8
0 1 1 0 1 0 0 1
4
0 1 0 1
8
0 1 1 0 0 1 0 1
8
1 0 0 1 1 0 0 1
8
1 0 0 1 0 1 1 0
8
1 0 1 0 0 1 0 1
8
0.7633041864575028 0.23669581354249725 0.510198081412406 0.48980191858759403 0.45347210132883686 0.546527898671163 0.5485445319600243 0.45145546803997577
8
0.5254134217451221 0.47458657825487793 0.2992442796780545 0.7007557203219456 0.9249699352981859 0.0750300647018141 0.4575647290965277 0.5424352709034723
8
0 1 1 0 0 1 1 0
8
1 0 1 0 1 0 1 0
8
0 1 1 0 0 1 0 1
8
0 1 0 1 1 0 0 1
8
0 1 1 0 0 1 1 0
8
1 0 1 0 0 1 0 1
8
0.821951524595477 0.17804847540452293 0.2176680584068646 0.7823319415931353 0.1424298517663256 0.8575701482336745 0.021370677217466914 0.9786293227825331
8
1 0 1 0 1 0 0 1
8
1 0 0 1 0 1 0 1
8
0.7945081693668998 0.20549183063310017 0.41201468121805385 0.5879853187819462 0.17385942828524917 0.8261405717147509 0.37847708470729147 0.6215229152927084
8
0 1 1 0 0 1 0 1
4
1 0 0 1
8
0.72718676496117 0.27281323503883004 0.09786019836092845 0.9021398016390716 0.46503513853817074 0.5349648614618293 0.5326803397110215 0.4673196602889786
8
1 0 1 0 1 0 1 0
8
1 0 1 0 1 0 0 1
8
1 0 1 0 0 1 1 0
8
0 1 1 0 1 0 1 0
8
1 0 1 0 0 1 0 1
8
0 1 0 1 0 1 0 1
8
0 1 1 0 1 0 0 1
8
0 1 0 1 0 1 1 0
8
1 0 1 0 0 1 1 0
8
1 0 0 1 1 0 0 1
8
1 0 0 1 0 1 0 1
8
1 0 1 0 0 1 1 0
8
1 0 1 0 0 1 0 1
8
0.6459369468059561 0.35406305319404396 0.30708890193412175 0.6929110980658783 0.14244721141898609 0.8575527885810139 0.6299541545946529 0.37004584540534713
8
1 0 1 0 0 1 0 1
8
1 0 0 1 0 1 1 0
4
1 0 0 1
8
0 1 1 0 0 1 1 0
8
0 1 1 0 0 1 0 1
8
0 1 0 1 0 1 1 0
8
0 1 1 0 0 1 1 0
8
0 1 1 0 1 0 0 1
8
0 1 1 0 1 0 0 1
8
0.11428503989545587 0.8857149601045441 0.162624290244448 0.8373757097555519 0.8132502043559731 0.18674979564402694 0.38507320590913796 0.6149267940908621
8
1 0 0 1 0 1 1 0
8
0 1 0 1 1 0 1 0
8
1 0 1 0 1 0 1 0
8
1 0 1 0 0 1 0 1
8
0 1 1 0 1 0 1 0
8
1 0 1 0 1 0 0 1
8
1 0 1 0 1 0 0 1
8
0 1 1 0 1 0 0 1
8
0.10264868300944727 0.8973513169905528 0.1858470256744449 0.8141529743255551 0.8937963142738704 0.10620368572612957 0.42473579464783207 0.5752642053521679
8
0 1 1 0 0 1 0 1
4
0 1 0 1
8
0 1 0 1 0 1 0 1
8
0 1 1 0 1 0 0 1
8
0 1 0 1 1 0 1 0
8
1 0 1 0 1 0 0 1
8
0.49062262347109303 0.5093773765289069 0.5474496497893541 0.4525503502106458 0.38515711873319597 0.6148428812668042 0.47698253690688686 0.5230174630931131
8
1 0 1 0 1 0 0 1
8
0.15409382718062492 0.8459061728193751 0.4008479683651644 0.5991520316348357 0.6235754679583553 0.3764245320416448 0.2932275973184886 0.7067724026815113
8
1 0 0 1 1 0 1 0
8
0 1 0 1 0 1 1 0
8
1 0 1 0 0 1 0 1
8
1 0 1 0 1 0 0 1
8
0.561216931555958 0.4387830684440421 0.3255056843820401 0.6744943156179599 0.1976734124643042 0.8023265875356959 0.572511449532087 0.427488550467913
8
0 1 0 1 0 1 1 0
8
1 0 0 1 1 0 0 1
8
0 1 0 1 0 1 1 0
8
1 0 1 0 0 1 1 0
8
1 0 0 1 1 0 1 0
4
1 0 0 1
8
0 1 0 1 0 1 0 1
8
0 1 1 0 1 0 1 0
8
0 1 0 1 0 1 0 1
8
1 0 0 1 1 0 1 0
8
0 1 1 0 0 1 0 1
8
1 0 0 1 0 1 0 1
8
0.7145395779267645 0.28546042207323563 0.6651969542184227 0.3348030457815772 0.9155728980457378 0.08442710195426215 0.7609018021284548 0.23909819787154513
8
0 1 0 1 1 0 1 0
8
1 0 0 1 1 0 1 0
8
0 1 1 0 0 1 1 0
8
0 1 1 0 1 0 1 0
8
1 0 0 1 0 1 0 1
8
1 0 0 1 0 1 1 0
8
0 1 0 1 0 1 1 0
8
1 0 1 0 0 1 0 1
8
0 1 0 1 1 0 0 1
8
1 0 1 0 1 0 0 1
4
0 1 1 0
8
0 1 0 1 0 1 1 0
8
1 0 0 1 0 1 1 0
8
1 0 1 0 1 0 0 1
8
0 1 0 1 0 1 1 0
8
1 0 1 0 1 0 1 0
8
0 1 1 0 1 0 1 0
8
0.6293404175227418 0.3706595824772581 0.971925135927552 0.028074864072447914 0.7367967703366433 0.26320322966335674 0.14574951222442398 0.854250487775576
8
0 1 0 1 1 0 1 0
8
0 1 0 1 1 0 1 0
8
0 1 1 0 1 0 1 0
8
0 1 0 1 1 0 0 1
8
1 0 0 1 0 1 1 0
8
1 0 1 0 0 1 1 0
8
0 1 0 1 1 0 0 1
8
0.2935847131730475 0.7064152868269525 0.330128546417756 0.669871453582244 0.26035805140314183 0.7396419485968581 0.14197855810537263 0.8580214418946274
8
0 1 0 1 0 1 0 1
8
1 0 1 0 1 0 1 0
4
1 0 1 0
8
0 1 1 0 0 1 0 1
8
0 1 1 0 0 1 0 1
8
0.4334811981410383 0.5665188018589618 0.25586221228287725 0.7441377877171228 0.45907886520167607 0.5409211347983239 0.8658337800364487 0.13416621996355116
8
1 0 1 0 1 0 0 1
8
1 0 0 1 0 1 1 0
8
0 1 1 0 1 0 0 1
8
1 0 1 0 1 0 0 1
8
1 0 1 0 0 1 0 1
8
0 1 0 1 0 1 1 0
8
0.4665721249520597 0.5334278750479403 0.6122004558279264 0.38779954417207363 0.4673789479817649 0.5326210520182351 0.2263715098241697 0.7736284901758304
8
0.45613015484267305 0.5438698451573268 0.4806537296963733 0.5193462703036267 0.6915992270084332 0.30840077299156665 0.016367332492541502 0.9836326675074585
8
1 0 0 1 0 1 1 0
8
1 0 1 0 0 1 1 0
8
0 1 1 0 1 0 1 0
8
1 0 0 1 1 0 0 1
8
0 1 1 0 1 0 0 1
8
1 0 1 0 0 1 0 1
4
0 1 1 0
8
0 1 0 1 1 0 0 1
8
0 1 1 0 0 1 0 1
8
1 0 0 1 0 1 1 0
8
1 0 0 1 0 1 0 1
8
1 0 1 0 0 1 1 0
8
1 0 0 1 1 0 1 0
8
0 1 1 0 1 0 1 0
8
0.8728031836517581 0.1271968163482419 0.8051734233037936 0.19482657669620654 0.48510522733329114 0.5148947726667088 0.06402334890771612 0.9359766510922839
8
1 0 0 1 0 1 1 0
8
0.5207336786837937 0.4792663213162062 0.34944933641111714 0.6505506635888829 0.4695093425109006 0.5304906574890994 0.60775439482458 0.39224560517542
8
0 1 1 0 1 0 0 1
8
1 0 1 0 0 1 1 0
8
1 0 1 0 1 0 1 0
8
1 0 0 1 1 0 0 1
8
0 1 1 0 1 0 1 0
8
1 0 1 0 0 1 1 0
8
0 1 1 0 0 1 1 0
4
0.5518061137213038 0.44819388627869616 0.2872155997840271 0.7127844002159729
8
0 1 1 0 0 1 0 1
8
0 1 1 0 1 0 0 1
8
0.5274831873777603 0.47251681262223966 0.4319601852650796 0.5680398147349204 0.16176328295995782 0.8382367170400422 0.5053301170785337 0.4946698829214663
8
0 1 1 0 1 0 1 0
8
1 0 0 1 0 1 1 0
8
0 1 0 1 0 1 1 0
8
1 0 0 1 1 0 1 0
8
0 1 1 0 0 1 0 1
8
1 0 0 1 0 1 0 1
8
0 1 0 1 0 1 0 1
8
1 0 1 0 1 0 0 1
8
0 1 0 1 0 1 1 0
8
0 1 1 0 0 1 0 1
8
0 1 0 1 1 0 0 1
8
1 0 1 0 0 1 0 1
8
1 0 0 1 1 0 0 1
8
0.1048374358864643 0.8951625641135357 0.75831003484791 0.24168996515209 0.4395831784429442 0.5604168215570557 0.8357713865517147 0.16422861344828535
4
0.5695663183193039 0.4304336816806961 0.43165883532671584 0.5683411646732842
8
0 1 1 0 0 1 1 0
8
0 1 0 1 1 0 1 0
8
1 0 0 1 0 1 1 0
8
1 0 1 0 1 0 0 1
8
0 1 0 1 0 1 0 1
8
1 0 0 1 0 1 0 1
8
1 0 0 1 1 0 0 1
8
0 1 0 1 1 0 1 0
8
0 1 0 1 0 1 1 0
8
0 1 0 1 0 1 0 1
8
1 0 0 1 0 1 0 1
8
0 1 0 1 0 1 0 1
8
0 1 0 1 0 1 1 0
8
0.5520356832251659 0.447964316774834 0.6799750080926394 0.32002499190736056 0.15955074767941232 0.8404492523205878 0.5839089389552622 0.41609106104473786
8
0 1 1 0 1 0 0 1
8
0 1 1 0 1 0 1 0
8
1 0 0 1 1 0 0 1
4
1 0 1 0
8
0 1 1 0 1 0 1 0
8
1 0 0 1 0 1 0 1
8
0 1 1 0 1 0 0 1
8
0 1 0 1 1 0 1 0
8
0 1 1 0 1 0 0 1
8
1 0 1 0 1 0 0 1
8
1 0 0 1 0 1 1 0
8
1 0 0 1 0 1 0 1
8
0 1 0 1 1 0 0 1
8
0.5060270033390228 0.4939729966609771 0.6097085660181194 0.3902914339818807 0.5181798718386452 0.48182012816135483 0.5163503986131797 0.48364960138682034
8
0 1 0 1 0 1 0 1
8
0 1 0 1 0 1 0 1
8
1 0 1 0 0 1 0 1
8
0 1 0 1 0 1 1 0
8
0 1 0 1 0 1 1 0
8
0 1 0 1 1 0 1 0
8
0 1 1 0 0 1 0 1
4
1 0 0 1
8
1 0 0 1 1 0 0 1
8
0 1 0 1 0 1 0 1
8
0.7542032901875609 0.2457967098124392 0.56860693241022 0.4313930675897799 0.8406250520349448 0.15937494796505527 0.5367248717557325 0.4632751282442674
8
1 0 1 0 1 0 1 0
8
1 0 0 1 0 1 1 0
8
1 0 1 0 1 0 1 0
8
0 1 1 0 0 1 0 1
8
0 1 1 0 1 0 0 1
8
0 1 0 1 1 0 0 1
8
1 0 0 1 0 1 0 1
8
1 0 0 1 1 0 0 1
8
1 0 1 0 0 1 0 1
8
1 0 0 1 0 1 1 0
8
0 1 1 0 1 0 1 0
8
0 1 1 0 0 1 1 0
8
1 0 0 1 0 1 1 0
8
1 0 0 1 1 0 0 1
4
0 1 0 1
8
0 1 0 1 0 1 0 1
8
1 0 0 1 0 1 1 0
8
0 1 1 0 1 0 0 1
8
0 1 0 1 0 1 1 0
8
1 0 0 1 0 1 0 1
8
1 0 1 0 0 1 0 1
8
0 1 0 1 1 0 1 0
8
0 1 1 0 1 0 0 1
8
1 0 0 1 1 0 0 1
8
1 0 0 1 1 0 0 1
8
0 1 1 0 0 1 0 1
8
0 1 1 0 1 0 1 0
8
0 1 1 0 0 1 1 0
8
0 1 0 1 1 0 1 0
8
0 1 1 0 0 1 0 1
8
1 0 0 1 1 0 1 0
8
1 0 0 1 1 0 0 1
4
0.8046618870874653 0.19533811291253464 0.7141088781352217 0.2858911218647783
8
1 0 1 0 1 0 1 0
8
0 1 1 0 1 0 1 0
8
1 0 1 0 0 1 0 1
8
1 0 1 0 0 1 1 0
8
0 1 1 0 0 1 1 0
8
0.4512060293111819 0.5487939706888181 0.51038635617581 0.48961364382419 0.8686873323183478 0.13131266768165215 0.8937445912978293 0.10625540870217065
8
0 1 1 0 1 0 0 1
8
1 0 1 0 0 1 0 1
8
1 0 1 0 0 1 0 1
8
0 1 1 0 1 0 0 1
8
0 1 1 0 1 0 1 0
8
0 1 0 1 1 0 1 0
8
1 0 0 1 0 1 1 0
8
0 1 0 1 1 0 1 0
8
0 1 1 0 1 0 1 0
8
0 1 0 1 0 1 1 0
8
0 1 1 0 0 1 1 0
4
0 1 1 0
8
1 0 1 0 0 1 1 0
8
0 1 1 0 0 1 0 1
8
1 0 0 1 0 1 0 1
8
0 1 1 0 0 1 1 0
8
1 0 0 1 1 0 1 0
8
0 1 1 0 0 1 0 1
8
1 0 1 0 1 0 0 1
8
1 0 0 1 0 1 1 0
8
0.4961561604090615 0.5038438395909385 0.915195877397665 0.08480412260233493 0.3977817097787809 0.6022182902212191 0.5580942313198363 0.4419057686801637
8
0 1 0 1 0 1 0 1
8
1 0 1 0 0 1 0 1
8
1 0 0 1 0 1 0 1
8
0 1 0 1 0 1 0 1
8
1 0 1 0 0 1 0 1
8
0 1 0 1 1 0 1 0
8
0 1 1 0 1 0 0 1
8
0 1 0 1 1 0 0 1
4
0 1 0 1
4
0 1 1 0
4
0 1 1 0
4
1 0 0 1
4
1 0 1 0
4
1 0 0 1
4
0.686933665904955 0.3130663340950451 0.47571568297019284 0.5242843170298072
4
1 0 1 0
4
0 1 1 0
4
1 0 1 0
4
1 0 0 1
4
0 1 1 0
4
0 1 0 1
4
0 1 1 0
4
0 1 0 1
4
0 1 0 1
4
1 0 1 0
4
0 1 1 0
2
0.20299539221849375 0.7970046077815064
